log
Welcome to the CBC MILP Solver 
Version: 2.10.3 
Build Date: Dec 15 2019 

command line - /home2/wangyian/miniconda3/lib/python3.9/site-packages/pulp/solverdir/cbc/linux/64/cbc /tmp/878b170fe6fc47c99feb34d402df8877-pulp.mps max sec 15 timeMode elapsed branch printingOptions all solution /tmp/878b170fe6fc47c99feb34d402df8877-pulp.sol (default strategy 1)
At line 2 NAME          MODEL
At line 3 ROWS
At line 20307 COLUMNS
At line 93998 RHS
At line 114301 BOUNDS
At line 121102 ENDATA
Problem MODEL has 20302 rows, 6800 columns and 57905 elements
Coin0008I MODEL read with 0 errors
seconds was changed from 1e+100 to 15
Option for timeMode changed from cpu to elapsed
Continuous objective value is 45 - 0.05 seconds
Cgl0002I 2522 variables fixed
Cgl0003I 248 fixed, 0 tightened bounds, 2971 strengthened rows, 459 substitutions
Cgl0003I 0 fixed, 0 tightened bounds, 250 strengthened rows, 16 substitutions
Cgl0003I 0 fixed, 0 tightened bounds, 1247 strengthened rows, 0 substitutions
Cgl0003I 0 fixed, 0 tightened bounds, 382 strengthened rows, 0 substitutions
Cgl0003I 0 fixed, 0 tightened bounds, 55 strengthened rows, 0 substitutions
Cgl0003I 0 fixed, 0 tightened bounds, 55 strengthened rows, 0 substitutions
Cgl0003I 0 fixed, 0 tightened bounds, 55 strengthened rows, 0 substitutions
Cgl0003I 0 fixed, 0 tightened bounds, 55 strengthened rows, 0 substitutions
Cgl0003I 0 fixed, 0 tightened bounds, 35 strengthened rows, 0 substitutions
Cgl0003I 0 fixed, 0 tightened bounds, 31 strengthened rows, 0 substitutions
Cgl0004I processed model has 1601 rows, 1676 columns (1676 integer (1652 of which binary)) and 9319 elements
Cbc0038I Initial state - 131 integers unsatisfied sum - 47.5
Cbc0038I Pass   1: suminf.    9.50000 (24) obj. -30.25 iterations 491
Cbc0038I Pass   2: suminf.    7.50000 (20) obj. -24.75 iterations 123
Cbc0038I Pass   3: suminf.    7.50000 (25) obj. -19.25 iterations 196
Cbc0038I Pass   4: suminf.    7.50000 (25) obj. -19.25 iterations 129
Cbc0038I Pass   5: suminf.   10.50000 (36) obj. -8.25 iterations 330
Cbc0038I Pass   6: suminf.    7.50000 (30) obj. -8.25 iterations 253
Cbc0038I Pass   7: suminf.   10.00000 (25) obj. -8.25 iterations 211
Cbc0038I Pass   8: suminf.    9.00000 (23) obj. -2.75 iterations 76
Cbc0038I Pass   9: suminf.    2.50000 (10) obj. 2.75 iterations 141
Cbc0038I Pass  10: suminf.    5.00000 (10) obj. 2.5 iterations 156
Cbc0038I Pass  11: suminf.    0.00000 (0) obj. 13 iterations 270
Cbc0038I Solution found of 13
Cbc0038I Cleaned solution of 13
Cbc0038I Before mini branch and bound, 1463 integers at bound fixed and 0 continuous
Cbc0038I Full problem 1601 rows 1676 columns, reduced to 267 rows 205 columns
Cbc0038I Mini branch and bound improved solution from 13 to 2 (0.48 seconds)
Cbc0038I Round again with cutoff of -2.40001
Cbc0038I Pass  12: suminf.    9.50000 (24) obj. -30.25 iterations 0
Cbc0038I Pass  13: suminf.    7.50000 (20) obj. -24.75 iterations 143
Cbc0038I Pass  14: suminf.    7.50000 (25) obj. -19.25 iterations 212
Cbc0038I Pass  15: suminf.    7.50000 (25) obj. -19.25 iterations 100
Cbc0038I Pass  16: suminf.   10.00000 (20) obj. -19.5 iterations 204
Cbc0038I Pass  17: suminf.   11.75000 (26) obj. -8.375 iterations 353
Cbc0038I Pass  18: suminf.    5.68372 (19) obj. -2.40001 iterations 282
Cbc0038I Pass  19: suminf.    5.00000 (10) obj. -8.5 iterations 251
Cbc0038I Pass  20: suminf.    2.50000 (10) obj. -8.25 iterations 187
Cbc0038I Pass  21: suminf.    8.23409 (32) obj. -2.40001 iterations 337
Cbc0038I Pass  22: suminf.    7.72857 (44) obj. -2.40001 iterations 234
Cbc0038I Pass  23: suminf.    5.00000 (10) obj. -8.5 iterations 160
Cbc0038I Pass  24: suminf.    2.50000 (10) obj. -8.25 iterations 122
Cbc0038I Pass  25: suminf.    5.00000 (10) obj. -8.5 iterations 178
Cbc0038I Pass  26: suminf.    5.00000 (10) obj. -8.5 iterations 256
Cbc0038I Pass  27: suminf.    2.50000 (10) obj. -8.25 iterations 275
Cbc0038I Pass  28: suminf.    2.50000 (10) obj. -8.25 iterations 198
Cbc0038I Pass  29: suminf.    5.00000 (10) obj. -8.5 iterations 152
Cbc0038I Pass  30: suminf.    2.50000 (10) obj. -8.25 iterations 141
Cbc0038I Pass  31: suminf.    8.30910 (32) obj. -2.40001 iterations 238
Cbc0038I Pass  32: suminf.    5.30910 (26) obj. -2.40001 iterations 234
Cbc0038I Pass  33: suminf.    5.00000 (10) obj. -8.5 iterations 176
Cbc0038I Pass  34: suminf.    2.50000 (10) obj. -8.25 iterations 111
Cbc0038I Pass  35: suminf.    5.00000 (10) obj. -8.5 iterations 143
Cbc0038I Pass  36: suminf.    5.00000 (10) obj. -8.5 iterations 236
Cbc0038I Pass  37: suminf.    2.50000 (10) obj. -8.25 iterations 240
Cbc0038I Pass  38: suminf.    5.00000 (10) obj. -8.5 iterations 154
Cbc0038I Pass  39: suminf.    0.00000 (0) obj. -8 iterations 242
Cbc0038I Solution found of -8
Cbc0038I Cleaned solution of -8
Cbc0038I Before mini branch and bound, 1394 integers at bound fixed and 0 continuous
Cbc0038I Full problem 1601 rows 1676 columns, reduced to 327 rows 262 columns
Cbc0038I Mini branch and bound improved solution from -8 to -41 (0.85 seconds)
Cbc0038I Round again with cutoff of -41.2
Cbc0038I Reduced cost fixing fixed 254 variables on major pass 3
Cbc0038I Pass  40: suminf.   11.50000 (28) obj. -41.25 iterations 10
Cbc0038I Pass  41: suminf.   11.50000 (28) obj. -41.25 iterations 72
Cbc0038I Pass  42: suminf.   11.50000 (28) obj. -41.25 iterations 148
Cbc0038I Pass  43: suminf.   14.00000 (28) obj. -41.5 iterations 255
Cbc0038I Pass  44: suminf.   14.00000 (28) obj. -41.5 iterations 201
Cbc0038I Pass  45: suminf.   14.00000 (28) obj. -41.5 iterations 126
Cbc0038I Pass  46: suminf.   11.50000 (28) obj. -41.25 iterations 182
Cbc0038I Pass  47: suminf.   11.50000 (28) obj. -41.25 iterations 69
Cbc0038I Pass  48: suminf.   11.50000 (28) obj. -41.25 iterations 103
Cbc0038I Pass  49: suminf.   17.00000 (44) obj. -41.25 iterations 198
Cbc0038I Pass  50: suminf.   12.50000 (30) obj. -41.25 iterations 247
Cbc0038I Pass  51: suminf.    7.50000 (25) obj. -41.25 iterations 137
Cbc0038I Pass  52: suminf.    7.50000 (25) obj. -41.25 iterations 60
Cbc0038I Pass  53: suminf.   10.00000 (25) obj. -41.25 iterations 119
Cbc0038I Pass  54: suminf.   11.09990 (45) obj. -41.2 iterations 251
Cbc0038I Pass  55: suminf.    7.50000 (30) obj. -41.25 iterations 162
Cbc0038I Pass  56: suminf.   10.00000 (20) obj. -41.5 iterations 201
Cbc0038I Pass  57: suminf.    7.50000 (20) obj. -41.25 iterations 180
Cbc0038I Pass  58: suminf.    7.50000 (20) obj. -41.25 iterations 103
Cbc0038I Pass  59: suminf.    7.50000 (20) obj. -41.25 iterations 161
Cbc0038I Pass  60: suminf.    7.50000 (20) obj. -41.25 iterations 177
Cbc0038I Pass  61: suminf.    7.50000 (20) obj. -41.25 iterations 173
Cbc0038I Pass  62: suminf.   10.00000 (20) obj. -41.5 iterations 120
Cbc0038I Pass  63: suminf.    7.50000 (20) obj. -41.25 iterations 147
Cbc0038I Pass  64: suminf.   10.00000 (20) obj. -41.5 iterations 179
Cbc0038I Pass  65: suminf.    9.80019 (32) obj. -41.2 iterations 220
Cbc0038I Pass  66: suminf.    7.40010 (26) obj. -41.2 iterations 141
Cbc0038I Pass  67: suminf.    8.00000 (21) obj. -41.25 iterations 165
Cbc0038I Pass  68: suminf.    7.40010 (21) obj. -41.2 iterations 208
Cbc0038I Pass  69: suminf.    8.00000 (21) obj. -41.25 iterations 116
Cbc0038I No solution found this major pass
Cbc0038I Before mini branch and bound, 1407 integers at bound fixed and 0 continuous
Cbc0038I Full problem 1601 rows 1676 columns, reduced to 325 rows 256 columns
Cbc0038I Mini branch and bound did not improve solution (1.16 seconds)
Cbc0038I After 1.16 seconds - Feasibility pump exiting with objective of -41 - took 0.84 seconds
Cbc0012I Integer solution of -41 found by feasibility pump after 0 iterations and 0 nodes (1.16 seconds)
Cbc0038I Full problem 1601 rows 1676 columns, reduced to 210 rows 144 columns
Cbc0031I 4 added rows had average density of 75.5
Cbc0013I At root node, 4 cuts changed objective from -42 to -41.5 in 5 passes
Cbc0014I Cut generator 0 (Probing) - 0 row cuts average 0.0 elements, 41 column cuts (41 active)  in 0.013 seconds - new frequency is 1
Cbc0014I Cut generator 1 (Gomory) - 0 row cuts average 0.0 elements, 0 column cuts (0 active)  in 0.016 seconds - new frequency is -100
Cbc0014I Cut generator 2 (Knapsack) - 0 row cuts average 0.0 elements, 0 column cuts (0 active)  in 0.006 seconds - new frequency is -100
Cbc0014I Cut generator 3 (Clique) - 0 row cuts average 0.0 elements, 0 column cuts (0 active)  in 0.000 seconds - new frequency is -100
Cbc0014I Cut generator 4 (MixedIntegerRounding2) - 0 row cuts average 0.0 elements, 0 column cuts (0 active)  in 0.003 seconds - new frequency is -100
Cbc0014I Cut generator 5 (FlowCover) - 0 row cuts average 0.0 elements, 0 column cuts (0 active)  in 0.000 seconds - new frequency is -100
Cbc0014I Cut generator 6 (TwoMirCuts) - 46 row cuts average 117.0 elements, 0 column cuts (0 active)  in 0.029 seconds - new frequency is 1
Cbc0010I After 0 nodes, 1 on tree, -41 best solution, best possible -41.5 (1.31 seconds)
Cbc0038I Full problem 1601 rows 1676 columns, reduced to 206 rows 156 columns
Cbc0038I Full problem 1605 rows 1676 columns, reduced to 1224 rows 1119 columns
Cbc0044I Reduced cost fixing - 1224 rows, 1119 columns - restarting search
Cbc0012I Integer solution of -41 found by Previous solution after 0 iterations and 0 nodes (2.39 seconds)
Cbc0038I Full problem 1224 rows 1119 columns, reduced to 230 rows 157 columns
Cbc0031I 3 added rows had average density of 26.666667
Cbc0013I At root node, 23 cuts changed objective from -42 to -39.5 in 1 passes
Cbc0014I Cut generator 0 (Probing) - 0 row cuts average 0.0 elements, 2 column cuts (2 active)  in 0.002 seconds - new frequency is 1
Cbc0014I Cut generator 1 (Gomory) - 4 row cuts average 27.8 elements, 0 column cuts (0 active)  in 0.001 seconds - new frequency is 1
Cbc0014I Cut generator 2 (Knapsack) - 0 row cuts average 0.0 elements, 0 column cuts (0 active)  in 0.001 seconds - new frequency is -100
Cbc0014I Cut generator 3 (Clique) - 0 row cuts average 0.0 elements, 0 column cuts (0 active)  in 0.000 seconds - new frequency is -100
Cbc0014I Cut generator 4 (MixedIntegerRounding2) - 0 row cuts average 0.0 elements, 0 column cuts (0 active)  in 0.000 seconds - new frequency is -100
Cbc0014I Cut generator 5 (FlowCover) - 0 row cuts average 0.0 elements, 0 column cuts (0 active)  in 0.000 seconds - new frequency is -100
Cbc0014I Cut generator 6 (TwoMirCuts) - 15 row cuts average 31.5 elements, 0 column cuts (0 active)  in 0.005 seconds - new frequency is -100
Cbc0014I Cut generator 7 (ZeroHalf) - 0 row cuts average 0.0 elements, 0 column cuts (0 active)  in 0.002 seconds - new frequency is -100
Cbc0014I Cut generator 9 (Stored from first) - 4 row cuts average 47.2 elements, 0 column cuts (0 active)
Cbc0001I Search completed - best objective -41.0000000000002, took 11 iterations and 0 nodes (2.43 seconds)
Cbc0035I Maximum depth 0, 43 variables fixed on reduced cost
Cbc0038I Probing was tried 1 times and created 2 cuts of which 0 were active after adding rounds of cuts (0.002 seconds)
Cbc0038I Gomory was tried 1 times and created 4 cuts of which 0 were active after adding rounds of cuts (0.001 seconds)
Cbc0038I Knapsack was tried 1 times and created 0 cuts of which 0 were active after adding rounds of cuts (0.001 seconds)
Cbc0038I Clique was tried 1 times and created 0 cuts of which 0 were active after adding rounds of cuts (0.000 seconds)
Cbc0038I MixedIntegerRounding2 was tried 1 times and created 0 cuts of which 0 were active after adding rounds of cuts (0.000 seconds)
Cbc0038I FlowCover was tried 1 times and created 0 cuts of which 0 were active after adding rounds of cuts (0.000 seconds)
Cbc0038I TwoMirCuts was tried 1 times and created 15 cuts of which 0 were active after adding rounds of cuts (0.005 seconds)
Cbc0038I ZeroHalf was tried 1 times and created 0 cuts of which 0 were active after adding rounds of cuts (0.002 seconds)
Cbc0038I Stored from first was tried 1 times and created 4 cuts of which 0 were active after adding rounds of cuts (0.000 seconds)
Cbc0001I Search completed - best objective -41.0000000000002, took 1270 iterations and 50 nodes (2.44 seconds)
Cbc0032I Strong branching done 788 times (11221 iterations), fathomed 8 nodes and fixed 9 variables
Cbc0035I Maximum depth 17, 412 variables fixed on reduced cost
Cuts at root node changed objective from -42 to -41.5
Probing was tried 20 times and created 48 cuts of which 0 were active after adding rounds of cuts (0.019 seconds)
Gomory was tried 5 times and created 0 cuts of which 0 were active after adding rounds of cuts (0.016 seconds)
Knapsack was tried 5 times and created 0 cuts of which 0 were active after adding rounds of cuts (0.006 seconds)
Clique was tried 5 times and created 0 cuts of which 0 were active after adding rounds of cuts (0.000 seconds)
MixedIntegerRounding2 was tried 5 times and created 0 cuts of which 0 were active after adding rounds of cuts (0.003 seconds)
FlowCover was tried 5 times and created 0 cuts of which 0 were active after adding rounds of cuts (0.000 seconds)
TwoMirCuts was tried 20 times and created 46 cuts of which 0 were active after adding rounds of cuts (0.036 seconds)
ZeroHalf was tried 1 times and created 0 cuts of which 0 were active after adding rounds of cuts (0.003 seconds)

Result - Optimal solution found

Objective value:                41.00000000
Enumerated nodes:               50
Total iterations:               1270
Time (CPU seconds):             2.45
Time (Wallclock seconds):       2.48

Option for printingOptions changed from normal to all
Total time (CPU seconds):       2.49   (Wallclock seconds):       2.53

---------------------------------------
Result: Optimal
Objective value: 41.0
Total Number of Course: 34
Non-Exempted Courses List: ['200', '210', '233', '432', '433', '441', '450', '461', '478', '507', '566', '580-Cit', '580-Che', '599A', '599B', '200AA', '200AB', '200AC', '200AD', '200AE', '200AF', '200AG', '200AH', '200AI', '233AA', '233AD', '233AE', '233AF', '233AG', '233AH', '580-Ogi']
Total Number of Non-Exempted Courses: 31
Total Number of Non-Exempted Hours: 75.0
The number of courses for which the instructors are not listed in the instructorpref file: 18
The number of courses for which the instructors' preference are not met: 0
The number of courses that violate Block Policy: 0
IW points earned: 16.0
CW points earned: 25.0
