log.stdout
Welcome to the CBC MILP Solver 
Version: 2.10.3 
Build Date: Dec 15 2019 

command line - /home2/wangyian/miniconda3/lib/python3.9/site-packages/pulp/solverdir/cbc/linux/64/cbc /tmp/9aae6c0cec564ac7ae597f3284ad49b6-pulp.mps max sec 15 timeMode elapsed branch printingOptions all solution /tmp/9aae6c0cec564ac7ae597f3284ad49b6-pulp.sol (default strategy 1)
At line 2 NAME          MODEL
At line 3 ROWS
At line 21277 COLUMNS
At line 82338 RHS
At line 103611 BOUNDS
At line 110412 ENDATA
Problem MODEL has 21272 rows, 6800 columns and 58875 elements
Coin0008I MODEL read with 0 errors
seconds was changed from 1e+100 to 15
Option for timeMode changed from cpu to elapsed
Presolve 2449 (-18823) rows, 1772 (-5028) columns and 8301 (-50574) elements
Perturbing problem by 0.001% of 1.1547005 - largest nonzero change 0.00099115772 ( 0.18311082%) - largest zero change 0.00097020199
0  Obj 4 Primal inf 52.764138 (41) Dual inf 144.10782 (198)
123  Obj 45.981345 Primal inf 355.22396 (210)
246  Obj 44.972535 Primal inf 178.97889 (224)
369  Obj 44.967082 Primal inf 236.43701 (242)
492  Obj 44.962846 Primal inf 141.54876 (215)
615  Obj 44.96128 Primal inf 384.39298 (150)
738  Obj 44.958603 Primal inf 237.7829 (128)
861  Obj 44.956222 Primal inf 174.31273 (122)
984  Obj 44.95385 Primal inf 39.62682 (60)
1107  Obj 44.952636 Primal inf 144.86982 (157)
1216  Obj 44.950814
Optimal - objective value 45
After Postsolve, objective 45, infeasibilities - dual 0 (0), primal 0 (0)
Optimal objective 45 - 1216 iterations time 0.042, Presolve 0.01
Option for printingOptions changed from normal to all
Total time (CPU seconds):       0.08   (Wallclock seconds):       0.09

Welcome to the CBC MILP Solver 
Version: 2.10.3 
Build Date: Dec 15 2019 

command line - /home2/wangyian/miniconda3/lib/python3.9/site-packages/pulp/solverdir/cbc/linux/64/cbc /tmp/615cb1358bb44897b2df20940595702b-pulp.mps max sec 15 timeMode elapsed branch printingOptions all solution /tmp/615cb1358bb44897b2df20940595702b-pulp.sol (default strategy 1)
At line 2 NAME          MODEL
At line 3 ROWS
At line 21277 COLUMNS
At line 95938 RHS
At line 117211 BOUNDS
At line 124012 ENDATA
Problem MODEL has 21272 rows, 6800 columns and 58875 elements
Coin0008I MODEL read with 0 errors
seconds was changed from 1e+100 to 15
Option for timeMode changed from cpu to elapsed
Continuous objective value is 45 - 0.04 seconds
Cgl0002I 2994 variables fixed
Cgl0003I 236 fixed, 0 tightened bounds, 1052 strengthened rows, 521 substitutions
Cgl0003I 0 fixed, 0 tightened bounds, 431 strengthened rows, 10 substitutions
Cgl0003I 0 fixed, 0 tightened bounds, 97 strengthened rows, 0 substitutions
Cgl0003I 0 fixed, 0 tightened bounds, 69 strengthened rows, 0 substitutions
Cgl0003I 2 fixed, 0 tightened bounds, 50 strengthened rows, 44 substitutions
Cgl0003I 0 fixed, 0 tightened bounds, 22 strengthened rows, 0 substitutions
Cgl0003I 0 fixed, 0 tightened bounds, 18 strengthened rows, 6 substitutions
Cgl0003I 0 fixed, 0 tightened bounds, 20 strengthened rows, 0 substitutions
Cgl0003I 2 fixed, 0 tightened bounds, 13 strengthened rows, 24 substitutions
Cgl0003I 0 fixed, 0 tightened bounds, 1 strengthened rows, 4 substitutions
Cgl0003I 1 fixed, 0 tightened bounds, 2 strengthened rows, 6 substitutions
Cgl0003I 0 fixed, 0 tightened bounds, 1 strengthened rows, 0 substitutions
Cgl0004I processed model has 1448 rows, 1399 columns (1399 integer (1371 of which binary)) and 6321 elements
Cbc0038I Initial state - 91 integers unsatisfied sum - 29
Cbc0038I Pass   1: suminf.   16.00000 (74) obj. -41.125 iterations 340
Cbc0038I Pass   2: suminf.   16.00000 (74) obj. -41.125 iterations 17
Cbc0038I Pass   3: suminf.   17.75000 (66) obj. -41.125 iterations 157
Cbc0038I Pass   4: suminf.   12.00000 (24) obj. -41 iterations 160
Cbc0038I Pass   5: suminf.   12.00000 (29) obj. -41 iterations 49
Cbc0038I Pass   6: suminf.    8.00000 (21) obj. -40.5 iterations 130
Cbc0038I Pass   7: suminf.    8.00000 (21) obj. -40.5 iterations 83
Cbc0038I Pass   8: suminf.    8.00000 (21) obj. -40.5 iterations 38
Cbc0038I Pass   9: suminf.    8.00000 (21) obj. -40.5 iterations 127
Cbc0038I Pass  10: suminf.    8.00000 (21) obj. -40.5 iterations 67
Cbc0038I Pass  11: suminf.    8.00000 (21) obj. -40.5 iterations 72
Cbc0038I Pass  12: suminf.    8.00000 (21) obj. -40.5 iterations 107
Cbc0038I Pass  13: suminf.    8.00000 (21) obj. -40.5 iterations 17
Cbc0038I Pass  14: suminf.    8.00000 (21) obj. -40.5 iterations 100
Cbc0038I Pass  15: suminf.    8.00000 (21) obj. -40.5 iterations 72
Cbc0038I Pass  16: suminf.   10.50000 (21) obj. -40.5 iterations 240
Cbc0038I Pass  17: suminf.    8.00000 (21) obj. -40.5 iterations 208
Cbc0038I Pass  18: suminf.    8.00000 (21) obj. -40.5 iterations 23
Cbc0038I Pass  19: suminf.    8.00000 (21) obj. -40.5 iterations 83
Cbc0038I Pass  20: suminf.    8.00000 (21) obj. -40.5 iterations 16
Cbc0038I Pass  21: suminf.    8.00000 (21) obj. -40.5 iterations 205
Cbc0038I Pass  22: suminf.    8.00000 (21) obj. -40.5 iterations 174
Cbc0038I Pass  23: suminf.    8.00000 (21) obj. -40.5 iterations 129
Cbc0038I Pass  24: suminf.    8.00000 (21) obj. -40.5 iterations 14
Cbc0038I Pass  25: suminf.    8.00000 (21) obj. -40.5 iterations 17
Cbc0038I Pass  26: suminf.    8.00000 (21) obj. -40.5 iterations 1
Cbc0038I Pass  27: suminf.    8.00000 (21) obj. -40.5 iterations 2
Cbc0038I Pass  28: suminf.   11.00000 (27) obj. -40 iterations 231
Cbc0038I Pass  29: suminf.    7.50000 (20) obj. -40.25 iterations 220
Cbc0038I Pass  30: suminf.    7.50000 (20) obj. -40.25 iterations 61
Cbc0038I No solution found this major pass
Cbc0038I Before mini branch and bound, 1207 integers at bound fixed and 0 continuous
Cbc0038I Full problem 1448 rows 1399 columns, reduced to 240 rows 184 columns
Cbc0038I Mini branch and bound did not improve solution (0.43 seconds)
Cbc0038I After 0.43 seconds - Feasibility pump exiting - took 0.19 seconds
Cbc0012I Integer solution of -41 found by DiveCoefficient after 299 iterations and 0 nodes (0.50 seconds)
Cbc0031I 7 added rows had average density of 298.14286
Cbc0013I At root node, 7 cuts changed objective from -42 to -41 in 4 passes
Cbc0014I Cut generator 0 (Probing) - 0 row cuts average 0.0 elements, 0 column cuts (0 active)  in 0.010 seconds - new frequency is -100
Cbc0014I Cut generator 1 (Gomory) - 26 row cuts average 430.2 elements, 0 column cuts (0 active)  in 0.011 seconds - new frequency is 1
Cbc0014I Cut generator 2 (Knapsack) - 0 row cuts average 0.0 elements, 0 column cuts (0 active)  in 0.003 seconds - new frequency is -100
Cbc0014I Cut generator 3 (Clique) - 0 row cuts average 0.0 elements, 0 column cuts (0 active)  in 0.000 seconds - new frequency is -100
Cbc0014I Cut generator 4 (MixedIntegerRounding2) - 0 row cuts average 0.0 elements, 0 column cuts (0 active)  in 0.002 seconds - new frequency is -100
Cbc0014I Cut generator 5 (FlowCover) - 0 row cuts average 0.0 elements, 0 column cuts (0 active)  in 0.000 seconds - new frequency is -100
Cbc0014I Cut generator 6 (TwoMirCuts) - 13 row cuts average 82.4 elements, 0 column cuts (0 active)  in 0.009 seconds - new frequency is 1
Cbc0001I Search completed - best objective -41.0000000000002, took 299 iterations and 0 nodes (0.50 seconds)
Cbc0035I Maximum depth 0, 0 variables fixed on reduced cost
Cuts at root node changed objective from -42 to -41
Probing was tried 4 times and created 0 cuts of which 0 were active after adding rounds of cuts (0.010 seconds)
Gomory was tried 4 times and created 26 cuts of which 0 were active after adding rounds of cuts (0.011 seconds)
Knapsack was tried 4 times and created 0 cuts of which 0 were active after adding rounds of cuts (0.003 seconds)
Clique was tried 4 times and created 0 cuts of which 0 were active after adding rounds of cuts (0.000 seconds)
MixedIntegerRounding2 was tried 4 times and created 0 cuts of which 0 were active after adding rounds of cuts (0.002 seconds)
FlowCover was tried 4 times and created 0 cuts of which 0 were active after adding rounds of cuts (0.000 seconds)
TwoMirCuts was tried 4 times and created 13 cuts of which 0 were active after adding rounds of cuts (0.009 seconds)
ZeroHalf was tried 1 times and created 0 cuts of which 0 were active after adding rounds of cuts (0.002 seconds)

Result - Optimal solution found

Objective value:                41.00000000
Enumerated nodes:               0
Total iterations:               299
Time (CPU seconds):             0.52
Time (Wallclock seconds):       0.54

Option for printingOptions changed from normal to all
Total time (CPU seconds):       0.57   (Wallclock seconds):       0.59

